Cd3 Ru Gd10                             
   1.0000000000000000     
     9.6606398632778934   -0.0000000000004934   -0.0000000000000000
    -4.8303199316898118    8.3663595383922029   -0.0000000000000000
    -0.0000000000000000    0.0000000000000000    9.9004117577098150
  Gd              Cd              Ru            
    20     6     2
Direct
     0.2109287019773997    0.4218574039548066    0.0621147766213958
     0.7890712980226002    0.5781425960451935    0.9378852233786042
     0.5781425960451935    0.7890712980226002    0.0621147766213958
     0.4218574039548066    0.2109287019773997    0.9378852233786042
     0.2109287019773997    0.7890712980226002    0.0621147766213958
     0.7890712980226002    0.2109287019773997    0.9378852233786042
     0.7890712980226002    0.5781425960451935    0.5621147766213958
     0.2109287019773997    0.4218574039548066    0.4378852233786042
     0.4218574039548066    0.2109287019773997    0.5621147766213958
     0.5781425960451935    0.7890712980226002    0.4378852233786042
     0.7890712980226002    0.2109287019773997    0.5621147766213958
     0.2109287019773997    0.7890712980226002    0.4378852233786042
     0.5422175280633080    0.0844350561266304    0.2500000000000000
     0.4577824719366990    0.9155649438733696    0.7500000000000000
     0.9155649438733696    0.4577824719366990    0.2500000000000000
     0.0844350561266304    0.5422175280633080    0.7500000000000000
     0.5422175280633080    0.4577824719366990    0.2500000000000000
     0.4577824719366990    0.5422175280633080    0.7500000000000000
     0.0000000000000000    0.0000000000000000    0.0000000000000000
     0.0000000000000000    0.0000000000000000    0.5000000000000000
     0.8868187676217244    0.7736375352434702    0.2500000000000000
     0.1131812323782756    0.2263624647565298    0.7500000000000000
     0.2263624647565298    0.1131812323782756    0.2500000000000000
     0.7736375352434702    0.8868187676217244    0.7500000000000000
     0.8868187676217244    0.1131812323782756    0.2500000000000000
     0.1131812323782756    0.8868187676217244    0.7500000000000000
     0.3333333429999996    0.6666666870000029    0.2500000000000000
     0.6666666570000004    0.3333333129999971    0.7500000000000000

  0.00000000E+00  0.00000000E+00  0.00000000E+00
  0.00000000E+00  0.00000000E+00  0.00000000E+00
  0.00000000E+00  0.00000000E+00  0.00000000E+00
  0.00000000E+00  0.00000000E+00  0.00000000E+00
  0.00000000E+00  0.00000000E+00  0.00000000E+00
  0.00000000E+00  0.00000000E+00  0.00000000E+00
  0.00000000E+00  0.00000000E+00  0.00000000E+00
  0.00000000E+00  0.00000000E+00  0.00000000E+00
  0.00000000E+00  0.00000000E+00  0.00000000E+00
  0.00000000E+00  0.00000000E+00  0.00000000E+00
  0.00000000E+00  0.00000000E+00  0.00000000E+00
  0.00000000E+00  0.00000000E+00  0.00000000E+00
  0.00000000E+00  0.00000000E+00  0.00000000E+00
  0.00000000E+00  0.00000000E+00  0.00000000E+00
  0.00000000E+00  0.00000000E+00  0.00000000E+00
  0.00000000E+00  0.00000000E+00  0.00000000E+00
  0.00000000E+00  0.00000000E+00  0.00000000E+00
  0.00000000E+00  0.00000000E+00  0.00000000E+00
  0.00000000E+00  0.00000000E+00  0.00000000E+00
  0.00000000E+00  0.00000000E+00  0.00000000E+00
  0.00000000E+00  0.00000000E+00  0.00000000E+00
  0.00000000E+00  0.00000000E+00  0.00000000E+00
  0.00000000E+00  0.00000000E+00  0.00000000E+00
  0.00000000E+00  0.00000000E+00  0.00000000E+00
  0.00000000E+00  0.00000000E+00  0.00000000E+00
  0.00000000E+00  0.00000000E+00  0.00000000E+00
  0.00000000E+00  0.00000000E+00  0.00000000E+00
  0.00000000E+00  0.00000000E+00  0.00000000E+00
